s td 129 35 204
b 1 3 32 101
b 2 4 86 103
b 3 16 22 38
b 4 25 82 196
b 5 26 61 202
b 6 30 40 56
b 7 1 31 179
b 8 20 34 87
b 9 35 38 113
b 10 29 37 114
b 11 20 41 178
b 12 1 51 78
b 13 45 56 58
b 14 23 28 60
b 15 54 62 146
b 16 63 77 113
b 17 1 65 75
b 18 39 66 95
b 19 1 73 191
b 20 79 145 183
b 21 81 95 134
b 22 83 137 168
b 23 84 95 169
b 24 43 85 156
b 25 77 97 174
b 26 20 99 132
b 27 46 56 104
b 28 38 77 113
b 29 24 123 168
b 30 54 72 127
b 31 105 124 135
b 32 57 72 142
b 33 54 57 72
b 34 86 116 150
b 35 2 95 162
b 36 23 74 164
b 37 10 43 167
b 38 119 125 170
b 39 57 160 172
b 40 56 139 173
b 41 20 181 189
b 42 107 124 198
b 43 125 130 204
b 44 2 95 193
b 45 10 43 105
b 46 16 38 202
b 47 23 28 74
b 48 29 114 146
b 49 40 56 156
b 50 45 56 102
b 51 46 56 159
b 52 1 78 153
b 53 15 86 101 103
b 54 43 105 124
b 55 42 82 107 124
b 56 86 116 137
b 57 24 95 134
b 58 86 137 168
b 59 54 114 146
b 60 57 94 160
b 61 95 115 169
b 62 69 77 174
b 63 20 108 178
b 64 68 145 183
b 65 42 56 68 145
b 66 38 61 202
b 67 12 28 53 94
b 68 39 95 171 188
b 69 54 95 115 188
b 70 1 5 6 7 13 33 49 50 52 54 67 71 74 76 80 86 93 95 98 100 101 112 120 125 126 136 144 148 152 153 168 171 182 186 194
b 71 38 43 56 69 86 95 101 125 130 155 182 203
b 72 9 19 20 38 43 47 55 56 59 61 69 82 108 110 111 117 124 125 130 143 145 147 149 151 155 157 165 177 180 184 200 201 203
b 73 9 19 20 38 43 47 55 56 59 61 69 82 108 110 111 117 119 124 125 130 143 145 147 149 151 155 157 165 177 180 184 200 201
b 74 9 14 19 20 38 43 47 55 56 59 61 69 82 108 110 111 117 119 124 130 143 145 147 149 151 155 157 165 200 201
b 75 9 14 19 20 38 47 56 59 69 77 82 108 110 111 117 130 145 147 149 151 155 157 165 201
b 76 9 21 47 56 59 77 82 110 130 145 147 149 151 155
b 77 8 9 21 47 56 59 110 130 145 147 149 151 155
b 78 9 19 20 38 43 47 55 56 59 61 82 90 92 108 110 111 117 124 130 143 145 147 149 151 154 155 157 163 165 177 180 184 200 201 203
b 79 19 20 38 43 47 55 56 59 61 82 90 92 108 110 111 117 118 124 130 143 145 147 149 151 154 155 157 163 165 177 180 184 200 201 203
b 80 19 20 38 47 55 56 59 61 82 90 92 108 110 111 117 118 124 130 133 143 145 147 149 151 154 155 157 163 165 177 180 184 200 201 203
b 81 19 20 38 47 55 56 59 61 90 92 110 111 117 118 124 130 133 143 145 147 149 151 154 155 157 163 165 176 177 180 184 200 201 203
b 82 19 20 38 55 56 59 61 90 110 111 117 118 124 130 133 141 143 145 147 149 151 154 155 157 163 165 176 177 180 184 200 201 203
b 83 11 19 38 55 56 59 61 90 110 111 117 118 124 130 133 141 143 145 147 149 154 155 157 163 165 176 177 180 184 200 201 203
b 84 11 19 38 55 56 61 70 90 110 111 117 118 124 130 133 141 143 145 147 149 154 155 157 163 165 176 177 180 184 200 201 203
b 85 11 19 27 38 55 56 61 70 90 110 111 117 118 124 130 133 145 147 149 154 155 157 163 165 176 177 180 200 201 203
b 86 11 19 27 38 55 56 61 70 90 110 111 117 118 124 133 138 145 147 154 155 157 163 165 176 177 180 200 201 203
b 87 11 19 55 56 61 70 89 90 110 111 117 118 133 138 145 147 154 155 157 163 177 180 200 201 203
b 88 11 19 55 70 89 90 110 118 133 138 154 155 157 163 177 180 199 200 203
b 89 38 47 55 59 110 124 129 133 143 145 149 155 157 176 177 201 203
b 90 47 55 82 92 108 118 124 133 140 149 163 165 201
b 91 9 19 20 38 43 47 48 55 56 59 61 82 90 108 110 111 117 124 143 147 149 154 155 157 163 184 200
b 92 9 20 36 47 48 59 61 82 90 108 111 124 143 149 154 155 163 184 200
b 93 20 36 47 48 61 82 124 154 155 175 184 200
b 94 42 56 82 124 145
b 95 38 43 56 64 69 86 95 101 130 155 182 203
b 96 38 43 56 64 86 95 101 155 156 182
b 97 86 95 101 106 156 182
b 98 15 86 95 101 106
b 99 38 56 64 96 155 156
b 100 1 5 6 7 13 33 49 50 52 54 67 71 74 76 80 86 93 98 100 101 112 120 125 126 136 144 148 152 153 171 182 186 194 197
b 101 1 5 6 7 13 33 49 50 52 54 67 71 74 80 86 93 98 100 101 109 112 120 125 136 144 148 152 153 171 182 186 194 197
b 102 5 6 7 13 17 33 49 50 52 54 71 74 80 86 93 98 109 112 120 125 136 144 148 152 153 171 182 186 197
b 103 5 6 7 13 17 33 49 50 54 74 86 88 93 109 112 120 125 144 148 152 153 182 197
b 104 5 6 7 18 49 50 74 88 93 120 125 144 148 152 153 182 197
b 105 33 49 50 71 80 86 101 109 120 136 152 153 166
b 106 1 6 7 13 50 52 54 76 93 98 136 144 148 152 186 192 194 197
b 107 6 7 52 54 76 98 136 148 152 186 190 192 194 197
b 108 1 5 6 7 13 33 49 50 52 54 67 71 74 76 80 86 93 95 98 100 101 112 114 120 125 126 136 144 148 153 168 171 182 186 194
b 109 1 5 6 7 13 33 49 50 52 54 67 71 74 76 80 86 93 95 98 100 101 112 114 120 122 125 126 136 144 148 153 168 171 182 186
b 110 1 5 6 7 13 33 49 50 52 54 67 71 74 76 80 86 91 93 95 98 100 101 114 120 122 125 126 136 144 148 153 168 171 182 186
b 111 1 5 6 7 13 33 49 50 52 54 67 71 74 76 80 86 91 93 95 98 100 101 114 120 122 126 136 144 148 153 158 168 171 182 186
b 112 1 6 7 13 33 49 50 52 54 67 71 74 76 80 86 91 93 95 98 101 114 122 126 136 144 148 153 158 168 171 182 186 195
b 113 1 6 7 28 33 50 52 54 67 71 74 76 80 86 91 95 98 101 114 122 126 136 144 148 153 158 168 171 182 186 195
b 114 1 7 28 50 54 67 71 74 80 86 91 95 98 101 114 126 136 144 148 153 158 168 171 182 185 186 195
b 115 1 7 28 50 54 67 74 80 86 91 95 98 101 114 126 136 144 148 153 158 161 168 171 182 185
b 116 1 28 50 54 57 91 95 98 101 126 136 144 148 153 161 168 171 185
b 117 28 54 57 95 98 101 168 171 188
b 118 24 95 168 188
b 119 28 53 57 95 98 101 188
b 120 28 53 57 94 95 101
b 121 1 5 7 49 54 67 71 76 80 86 91 93 95 100 101 114 120 122 126 128 144 148 153 158 168 171 186
b 122 1 5 7 49 67 71 76 86 100 101 114 120 128 131 148 153 158 171 186
b 123 1 5 7 71 100 101 120 131 148 153 158 171 186 187
b 124 15 44 95 106
b 125 56 69 82 102
b 126 64 69 121 130
b 127 56 96 139 155
b 128 38 56 96 159
b 129 94 95 101 193
1 70
2 53
3 46
4 72
5 66
6 49
7 70
8 72
9 28
10 48
11 63
12 52
13 50
14 47
15 59
16 28
17 70
18 68
19 70
20 64
21 57
22 58
23 61
24 96
25 62
26 72
27 51
28 75
29 118
30 33
31 54
32 33
33 116
34 56
35 44
36 47
37 45
38 73
39 60
40 127
41 72
42 55
43 71
44 129
45 54
46 66
47 113
48 59
49 96
50 125
51 128
52 70
53 98
54 72
55 94
56 58
57 118
58 70
59 108
60 120
61 69
62 75
63 72
64 65
65 94
66 72
67 120
68 117
69 117
70 71
70 100
70 108
71 72
71 95
72 125
72 73
72 78
72 94
73 74
74 75
75 76
76 77
78 79
78 91
79 80
80 81
80 90
81 82
81 89
82 83
83 84
84 85
85 86
86 87
87 88
91 92
92 93
95 126
95 96
96 97
96 99
97 98
98 124
99 127
99 128
100 101
100 106
101 102
101 105
102 103
103 104
106 107
108 109
109 110
110 111
111 112
111 121
112 113
113 114
114 115
115 116
116 117
117 118
117 119
119 120
120 129
121 122
122 123
